(set-logic BV) (define-fun origCir ((n148 Bool) (n133 Bool) (n127 Bool) (n116 Bool) (n105 Bool)) Bool (and (not n148) (not (and (not (and n133 (not (and n116 n105)))) (not (and n127 (and n116 n105))))))) (synth-fun skel ((n148 Bool) (n133 Bool) (n127 Bool) (n116 Bool) (n105 Bool)) Bool) (declare-var n148 Bool) (declare-var n133 Bool) (declare-var n127 Bool) (declare-var n116 Bool) (declare-var n105 Bool) (constraint (= (origCir n148 n133 n127 n116 n105) (skel n148 n133 n127 n116 n105))) (check-synth)
